; 
(set-info :status unknown)
(declare-fun strA_sym__0___0 () Int)
(declare-fun strA_sym__1___0 () Int)
(declare-fun strA_sym__2___0 () Int)
(declare-fun strA_sym__3___0 () Int)
(declare-fun strA_sym__4___0 () Int)
(declare-fun strA_sym__5___0 () Int)
(declare-fun strA_sym__6___0 () Int)
(declare-fun strA_sym__7___0 () Int)
(declare-fun strA_sym__8___0 () Int)
(declare-fun strA_sym__9___0 () Int)
(declare-fun strA_sym__10___0 () Int)
(declare-fun strA_sym__11___0 () Int)
(declare-fun strA_sym__12___0 () Int)
(declare-fun strA_sym__13___0 () Int)
(declare-fun strA_sym__14___0 () Int)
(declare-fun strA_sym__15___0 () Int)
(declare-fun strA_sym__16___0 () Int)
(declare-fun strA_sym__17___0 () Int)
(declare-fun strA_sym__18___0 () Int)
(declare-fun strA_sym__19___0 () Int)
(declare-fun strA_sym__20___0 () Int)
(declare-fun strA_sym__21___0 () Int)
(declare-fun strA_sym__22___0 () Int)
(declare-fun strA_sym__23___0 () Int)
(declare-fun strB_sym__0___0 () Int)
(declare-fun strB_sym__1___0 () Int)
(declare-fun strB_sym__2___0 () Int)
(declare-fun strB_sym__3___0 () Int)
(declare-fun strB_sym__4___0 () Int)
(declare-fun strB_sym__5___0 () Int)
(declare-fun strB_sym__6___0 () Int)
(declare-fun strB_sym__7___0 () Int)
(declare-fun strB_sym__8___0 () Int)
(declare-fun strB_sym__9___0 () Int)
(declare-fun strB_sym__10___0 () Int)
(declare-fun strB_sym__11___0 () Int)
(declare-fun strB_sym__12___0 () Int)
(declare-fun strB_sym__13___0 () Int)
(declare-fun strB_sym__14___0 () Int)
(declare-fun strB_sym__15___0 () Int)
(declare-fun strB_sym__16___0 () Int)
(declare-fun strB_sym__17___0 () Int)
(declare-fun strB_sym__18___0 () Int)
(declare-fun strB_sym__19___0 () Int)
(declare-fun strB_sym__20___0 () Int)
(declare-fun strB_sym__21___0 () Int)
(declare-fun strB_sym__22___0 () Int)
(declare-fun strB_sym__23___0 () Int)
(assert
 (< strA_sym__0___0 256))
(assert
 (>= strA_sym__0___0 0))
(assert
 (< strA_sym__1___0 256))
(assert
 (>= strA_sym__1___0 0))
(assert
 (< strA_sym__2___0 256))
(assert
 (>= strA_sym__2___0 0))
(assert
 (< strA_sym__3___0 256))
(assert
 (>= strA_sym__3___0 0))
(assert
 (< strA_sym__4___0 256))
(assert
 (>= strA_sym__4___0 0))
(assert
 (< strA_sym__5___0 256))
(assert
 (>= strA_sym__5___0 0))
(assert
 (< strA_sym__6___0 256))
(assert
 (>= strA_sym__6___0 0))
(assert
 (< strA_sym__7___0 256))
(assert
 (>= strA_sym__7___0 0))
(assert
 (< strA_sym__8___0 256))
(assert
 (>= strA_sym__8___0 0))
(assert
 (< strA_sym__9___0 256))
(assert
 (>= strA_sym__9___0 0))
(assert
 (< strA_sym__10___0 256))
(assert
 (>= strA_sym__10___0 0))
(assert
 (< strA_sym__11___0 256))
(assert
 (>= strA_sym__11___0 0))
(assert
 (< strA_sym__12___0 256))
(assert
 (>= strA_sym__12___0 0))
(assert
 (< strA_sym__13___0 256))
(assert
 (>= strA_sym__13___0 0))
(assert
 (< strA_sym__14___0 256))
(assert
 (>= strA_sym__14___0 0))
(assert
 (< strA_sym__15___0 256))
(assert
 (>= strA_sym__15___0 0))
(assert
 (< strA_sym__16___0 256))
(assert
 (>= strA_sym__16___0 0))
(assert
 (< strA_sym__17___0 256))
(assert
 (>= strA_sym__17___0 0))
(assert
 (< strA_sym__18___0 256))
(assert
 (>= strA_sym__18___0 0))
(assert
 (< strA_sym__19___0 256))
(assert
 (>= strA_sym__19___0 0))
(assert
 (< strA_sym__20___0 256))
(assert
 (>= strA_sym__20___0 0))
(assert
 (< strA_sym__21___0 256))
(assert
 (>= strA_sym__21___0 0))
(assert
 (< strA_sym__22___0 256))
(assert
 (>= strA_sym__22___0 0))
(assert
 (< strA_sym__23___0 256))
(assert
 (>= strA_sym__23___0 0))
(assert
 (< strB_sym__0___0 256))
(assert
 (>= strB_sym__0___0 0))
(assert
 (< strB_sym__1___0 256))
(assert
 (>= strB_sym__1___0 0))
(assert
 (< strB_sym__2___0 256))
(assert
 (>= strB_sym__2___0 0))
(assert
 (< strB_sym__3___0 256))
(assert
 (>= strB_sym__3___0 0))
(assert
 (< strB_sym__4___0 256))
(assert
 (>= strB_sym__4___0 0))
(assert
 (< strB_sym__5___0 256))
(assert
 (>= strB_sym__5___0 0))
(assert
 (< strB_sym__6___0 256))
(assert
 (>= strB_sym__6___0 0))
(assert
 (< strB_sym__7___0 256))
(assert
 (>= strB_sym__7___0 0))
(assert
 (< strB_sym__8___0 256))
(assert
 (>= strB_sym__8___0 0))
(assert
 (< strB_sym__9___0 256))
(assert
 (>= strB_sym__9___0 0))
(assert
 (< strB_sym__10___0 256))
(assert
 (>= strB_sym__10___0 0))
(assert
 (< strB_sym__11___0 256))
(assert
 (>= strB_sym__11___0 0))
(assert
 (< strB_sym__12___0 256))
(assert
 (>= strB_sym__12___0 0))
(assert
 (< strB_sym__13___0 256))
(assert
 (>= strB_sym__13___0 0))
(assert
 (< strB_sym__14___0 256))
(assert
 (>= strB_sym__14___0 0))
(assert
 (< strB_sym__15___0 256))
(assert
 (>= strB_sym__15___0 0))
(assert
 (< strB_sym__16___0 256))
(assert
 (>= strB_sym__16___0 0))
(assert
 (< strB_sym__17___0 256))
(assert
 (>= strB_sym__17___0 0))
(assert
 (< strB_sym__18___0 256))
(assert
 (>= strB_sym__18___0 0))
(assert
 (< strB_sym__19___0 256))
(assert
 (>= strB_sym__19___0 0))
(assert
 (< strB_sym__20___0 256))
(assert
 (>= strB_sym__20___0 0))
(assert
 (< strB_sym__21___0 256))
(assert
 (>= strB_sym__21___0 0))
(assert
 (< strB_sym__22___0 256))
(assert
 (>= strB_sym__22___0 0))
(assert
 (< strB_sym__23___0 256))
(assert
 (>= strB_sym__23___0 0))
(assert
 (= strA_sym__0___0 strB_sym__0___0))
(assert
 (= strA_sym__1___0 strB_sym__1___0))
(assert
 (= strA_sym__2___0 strB_sym__2___0))
(assert
 (= strA_sym__3___0 strB_sym__3___0))
(assert
 (= strA_sym__4___0 strB_sym__4___0))
(assert
 (= strA_sym__5___0 strB_sym__5___0))
(assert
 (= strA_sym__6___0 strB_sym__6___0))
(assert
 (= strA_sym__7___0 strB_sym__7___0))
(assert
 (= strA_sym__8___0 strB_sym__8___0))
(assert
 (= strA_sym__9___0 strB_sym__9___0))
(assert
 (= strA_sym__10___0 strB_sym__10___0))
(assert
 (= strA_sym__11___0 strB_sym__11___0))
(assert
 (= strA_sym__12___0 strB_sym__12___0))
(assert
 (= strA_sym__13___0 strB_sym__13___0))
(assert
 (= strA_sym__14___0 strB_sym__14___0))
(assert
 (= strA_sym__15___0 strB_sym__15___0))
(assert
 (= strA_sym__16___0 strB_sym__16___0))
(assert
 (= strA_sym__17___0 strB_sym__17___0))
(assert
 (= strA_sym__18___0 strB_sym__18___0))
(assert
 (= strA_sym__19___0 strB_sym__19___0))
(assert
 (= strA_sym__20___0 strB_sym__20___0))
(assert
 (= strA_sym__21___0 strB_sym__21___0))
(assert
 (= strA_sym__22___0 strB_sym__22___0))
(assert
 (and (distinct strA_sym__23___0 strB_sym__23___0) true))
(check-sat)
